
  22   10
  10   10   10   10   10   10   10   10   10   10

   0   0   0   0   0   0   0   0   0   0   0   5 2 3 5 7 8 
   9  10  10  10  10  10  10  10  10  10  10   3 10 9 4 
   5  10  10  10  10  10  10  10  10  10  10   2 6 4 
   4  10  10  10  10  10  10  10  10  10  10   7 20 17 16 15 14 12 11 
   6  10  10  10  10  10  10  10  10  10  10   7 20 17 16 15 14 12 11 
   3  10  10  10  10  10  10  10  10  10  10   5 17 16 15 12 9 
   2  10  10  10  10  10  10  10  10  10  10   4 21 20 19 12 
   9  10  10  10  10  10  10  10  10  10  10   3 15 14 11 
   3  10  10  10  10  10  10  10  10  10  10   2 20 11 
   9  10  10  10  10  10  10  10  10  10  10   2 14 11 
   7  10  10  10  10  10  10  10  10  10  10   2 19 13 
   9  10  10  10  10  10  10  10  10  10  10   1 13 
   1  10  10  10  10  10  10  10  10  10  10   1 18 
   4  10  10  10  10  10  10  10  10  10  10   1 19 
   1  10  10  10  10  10  10  10  10  10  10   1 18 
   1  10  10  10  10  10  10  10  10  10  10   1 21 
   7  10  10  10  10  10  10  10  10  10  10   1 19 
   7  10  10  10  10  10  10  10  10  10  10   1 22
   4  10  10  10  10  10  10  10  10  10  10   1 22
  10  10  10  10  10  10  10  10  10  10  10   1 22
   6  10  10  10  10  10  10  10  10  10  10   1 22
   0   0   0   0   0   0   0   0   0   0   0   0 
